(declare-fun var0 () String)
(assert (str.in.re var0 (re.++ (re.union (re.* (str.to.re "g")) (re.* (str.to.re "h"))) (re.++ (re.* (re.* (str.to.re "fff"))) (re.++ (re.union (re.* (str.to.re "cc")) (re.union (str.to.re "ddd") (str.to.re "ee"))) (re.++ (re.union (re.union (str.to.re "888") (str.to.re "9")) (re.union (str.to.re "a") (str.to.re "bbb"))) (re.++ (re.* (re.+ (str.to.re "77"))) (re.++ (re.+ (re.union (str.to.re "55") (str.to.re "66"))) (re.++ (re.+ (re.union (str.to.re "33") (str.to.re "44"))) (re.++ (re.+ (re.+ (str.to.re "222"))) (re.++ (re.+ (re.+ (str.to.re "1"))) (re.* (re.+ (str.to.re "0"))))))))))))))
(assert (str.in.re var0 (re.++ (re.* (re.* (str.to.re "i"))) (re.++ (re.union (re.union (str.to.re "f") (str.to.re "gg")) (re.* (str.to.re "h"))) (re.++ (re.* (re.union (str.to.re "d") (str.to.re "e"))) (re.++ (re.union (re.* (str.to.re "b")) (re.+ (str.to.re "cc"))) (re.++ (re.* (re.union (str.to.re "9") (str.to.re "aa"))) (re.++ (re.* (re.union (str.to.re "77") (str.to.re "8"))) (re.++ (re.* (re.union (str.to.re "555") (str.to.re "6"))) (re.++ (re.union (re.+ (str.to.re "3")) (re.* (str.to.re "44"))) (re.++ (re.union (re.* (str.to.re "111")) (re.+ (str.to.re "2"))) (re.* (re.* (str.to.re "0"))))))))))))))
(assert (str.in.re var0 (re.++ (re.+ (re.union (str.to.re "ll") (str.to.re "mm"))) (re.++ (re.+ (re.union (str.to.re "jj") (str.to.re "k"))) (re.++ (re.+ (re.union (str.to.re "hhh") (str.to.re "ii"))) (re.++ (re.* (re.union (str.to.re "f") (str.to.re "g"))) (re.++ (re.+ (re.union (str.to.re "ddd") (str.to.re "ee"))) (re.++ (re.+ (re.union (str.to.re "bb") (str.to.re "c"))) (re.++ (re.* (re.union (str.to.re "9") (str.to.re "aa"))) (re.++ (re.* (re.union (str.to.re "77") (str.to.re "88"))) (re.++ (re.union (re.* (str.to.re "444")) (re.union (str.to.re "555") (str.to.re "6"))) (re.union (re.union (str.to.re "000") (str.to.re "111")) (re.union (str.to.re "22") (str.to.re "333"))))))))))))))
(assert (str.in.re var0 (re.++ (re.+ (re.union (str.to.re "c") (str.to.re "dd"))) (re.++ (re.+ (re.+ (str.to.re "bbb"))) (re.++ (re.* (re.+ (str.to.re "aaa"))) (re.++ (re.+ (re.* (str.to.re "999"))) (re.++ (re.+ (re.* (str.to.re "8"))) (re.++ (re.+ (re.* (str.to.re "777"))) (re.++ (re.+ (re.+ (str.to.re "66"))) (re.++ (re.union (re.+ (str.to.re "33")) (re.union (str.to.re "4") (str.to.re "5"))) (re.++ (re.+ (re.+ (str.to.re "22"))) (re.* (re.union (str.to.re "000") (str.to.re "1"))))))))))))))
(check-sat)